benchmarks_vrp/CMT5/no_cluster/CMT5_14.vrp
NAME: CMT5_14
TYPE: CVRP
COMMENT: 1291.29 - Cluster Nr.14
DIMENSION: 16
CAPACITY: 200
EDGE_WEIGHT_TYPE: EUC_2D
NODE_COORD_TYPE: TWOD_COORDS
NODE_COORD_SECTION: 
10 62 42
13 65 55
7 53 43
11 35 35
16 58 48
5 62 48
14 55 45
8 50 40
6 52 41
9 61 52
12 64 42
15 55 45
3 62 35
4 51 42
1 57 48
2 65 35
DEPOT_SECTION: 
11
-1
DEMAND_SECTION: 
9 3
15 16
13 14
5 15
3 12
2 3
12 9
1 23
7 14
10 8
6 15
14 13
11 0
8 19
16 6
4 27
EOF
