benchmarks_vrp/CMT5/no_cluster/CMT5_14.tour
NAME: CMT5_14 solution
TYPE: TOUR
TOUR_SECTION:
11 3 2 12 10 5 13 9 16 1 15 14 7 4 6 8 -1
-1
EOF